cases/pglib-opf/pglib_opf_case3_lmbd.m
ipopt
ACP
[info | PowerModels]: removing 3 cost terms from generator 3: Float64[]

******************************************************************************
This program contains Ipopt, a library for large-scale nonlinear optimization.
 Ipopt is released as open source code under the Eclipse Public License (EPL).
         For more information visit http://projects.coin-or.org/Ipopt
******************************************************************************

This is Ipopt version 3.13.2, running with linear solver mumps.
NOTE: Other linear solvers might be more efficient (see Ipopt documentation).

Number of nonzeros in equality constraint Jacobian...:       18
Number of nonzeros in inequality constraint Jacobian.:       12
Number of nonzeros in Lagrangian Hessian.............:        2

Total number of variables............................:        8
                     variables with only lower bounds:        0
                variables with lower and upper bounds:        5
                     variables with only upper bounds:        0
Total number of equality constraints.................:        7
Total number of inequality constraints...............:        6
        inequality constraints with only lower bounds:        3
   inequality constraints with lower and upper bounds:        0
        inequality constraints with only upper bounds:        3

iter    objective    inf_pr   inf_du lg(mu)  ||d||  lg(rg) alpha_du alpha_pr  ls
   0  6.3949934e+00 1.09e+00 1.96e+01  -1.0 0.00e+00    -  0.00e+00 0.00e+00   0
   1  4.7715313e+03 9.61e-02 1.56e+02  -1.0 1.80e+00    -  5.78e-03 9.12e-01h  1
   2  4.8340045e+03 8.89e-02 1.45e+02  -1.0 2.04e-01    -  9.91e-01 7.53e-02h  1
   3  5.7002900e+03 5.55e-17 1.00e-06  -1.0 2.26e-01    -  1.00e+00 1.00e+00h  1
   4  5.6961391e+03 4.16e-17 2.00e-07  -1.7 6.11e-03    -  1.00e+00 1.00e+00f  1
   5  5.6959104e+03 5.55e-17 2.83e-08  -2.5 3.43e-04    -  1.00e+00 1.00e+00f  1
   6  5.6958966e+03 5.55e-17 1.50e-09  -3.8 2.07e-05    -  1.00e+00 1.00e+00f  1
   7  5.6958959e+03 6.94e-17 1.84e-11  -5.7 1.12e-06    -  1.00e+00 1.00e+00f  1
   8  5.6958959e+03 1.11e-16 4.98e-14  -8.6 1.38e-08    -  1.00e+00 1.00e+00f  1

Number of Iterations....: 8

                                   (scaled)                 (unscaled)
Objective...............:   1.1391791768602282e+03    5.6958958843011405e+03
Dual infeasibility......:   4.9788150742935494e-14    2.4894075371467747e-13
Constraint violation....:   1.1102230246251565e-16    1.1102230246251565e-16
Complementarity.........:   2.5060437665211792e-09    1.2530218832605895e-08
Overall NLP error.......:   2.5060437665211792e-09    1.2530218832605895e-08


Number of objective function evaluations             = 9
Number of objective gradient evaluations             = 9
Number of equality constraint evaluations            = 9
Number of inequality constraint evaluations          = 9
Number of equality constraint Jacobian evaluations   = 1
Number of inequality constraint Jacobian evaluations = 1
Number of Lagrangian Hessian evaluations             = 1
Total CPU secs in IPOPT (w/o function evaluations)   =      0.221
Total CPU secs in NLP function evaluations           =      0.206

EXIT: Optimal Solution Found.
This is Ipopt version 3.13.2, running with linear solver mumps.
NOTE: Other linear solvers might be more efficient (see Ipopt documentation).

Number of nonzeros in equality constraint Jacobian...:       78
Number of nonzeros in inequality constraint Jacobian.:       24
Number of nonzeros in Lagrangian Hessian.............:      134

Total number of variables............................:       23
                     variables with only lower bounds:        0
                variables with lower and upper bounds:       20
                     variables with only upper bounds:        0
Total number of equality constraints.................:       19
Total number of inequality constraints...............:       12
        inequality constraints with only lower bounds:        3
   inequality constraints with lower and upper bounds:        0
        inequality constraints with only upper bounds:        9

iter    objective    inf_pr   inf_du lg(mu)  ||d||  lg(rg) alpha_du alpha_pr  ls
   0  6.3949934e+00 1.09e+00 1.67e+01  -1.0 0.00e+00    -  0.00e+00 0.00e+00   0
   1  2.1048421e+03 4.62e-01 1.04e+02  -1.0 1.81e+00    -  5.77e-03 5.76e-01h  1
   2  4.4503068e+03 1.36e-01 3.09e+01  -1.0 8.29e-01    -  8.15e-01 7.05e-01h  1
   3  4.6140270e+03 1.18e-01 2.67e+01  -1.0 2.99e-01    -  4.13e-01 1.37e-01h  1
   4  4.9343698e+03 8.25e-02 3.85e+01  -1.0 4.36e-01    -  4.94e-01 2.98e-01h  1
   5  5.4019378e+03 3.46e-02 2.51e+01  -1.0 3.62e-01    -  9.90e-01 5.81e-01h  1
   6  5.4116196e+03 3.37e-02 1.26e+02  -1.0 1.45e-01    -  1.84e-01 2.70e-02h  1
   7  5.6094774e+03 1.60e-02 5.13e+01  -1.0 2.53e-01    -  2.76e-01 5.25e-01h  1
   8  5.7031738e+03 8.53e-03 8.21e+01  -1.0 1.43e-01    -  7.00e-01 4.67e-01h  1
   9  5.8145457e+03 6.10e-04 2.19e+00  -1.0 5.77e-02    -  1.00e+00 1.00e+00h  1
iter    objective    inf_pr   inf_du lg(mu)  ||d||  lg(rg) alpha_du alpha_pr  ls
  10  5.8146316e+03 2.55e-05 7.83e-03  -1.0 1.23e-02    -  1.00e+00 1.00e+00h  1
  11  5.8127612e+03 1.60e-05 1.36e-02  -2.5 8.27e-03    -  1.00e+00 1.00e+00f  1
  12  5.8126464e+03 2.60e-07 1.15e-04  -3.8 1.05e-03    -  1.00e+00 1.00e+00f  1
  13  5.8126430e+03 1.32e-10 8.31e-08  -5.7 2.50e-05    -  1.00e+00 1.00e+00h  1
  14  5.8126429e+03 7.70e-15 6.10e-12  -8.6 1.78e-07    -  1.00e+00 1.00e+00h  1

Number of Iterations....: 14

                                   (scaled)                 (unscaled)
Objective...............:   1.1625285870072360e+03    5.8126429350361796e+03
Dual infeasibility......:   6.1020666718422463e-12    3.0510333359211231e-11
Constraint violation....:   7.7021722333370235e-15    7.7021722333370235e-15
Complementarity.........:   2.5102170848799465e-09    1.2551085424399732e-08
Overall NLP error.......:   2.5102170848799465e-09    1.2551085424399732e-08


Number of objective function evaluations             = 15
Number of objective gradient evaluations             = 15
Number of equality constraint evaluations            = 15
Number of inequality constraint evaluations          = 15
Number of equality constraint Jacobian evaluations   = 15
Number of inequality constraint Jacobian evaluations = 15
Number of Lagrangian Hessian evaluations             = 14
Total CPU secs in IPOPT (w/o function evaluations)   =      0.996
Total CPU secs in NLP function evaluations           =      2.069

EXIT: Optimal Solution Found.
Time to Solution........:3.1196749210357666
